original.lp
\ SCIP STATISTICS
\   Problem name     : vaccine
\   Variables        : 381 (39 binary, 117 integer, 0 implicit integer, 225 continuous)
\   Constraints      : 415
\   Obj. scale       : 1
\   Obj. offset      : 0
Minimize
 Obj: +1.33333333333333 x1_2 +1.33333333333333 x1_3 +1.33333333333333 x1_4 +1.33333333333333 x1_5 +1.33333333333333 x1_6
      +1.33333333333333 x1_7 +1.33333333333333 x1_8 +1.33333333333333 x1_9 +1.33333333333333 x1_10 +1.33333333333333 x1_11
      +1.33333333333333 x1_12 +1.33333333333333 x1_13 +1.33333333333333 x1_14 +1.33333333333333 x1_15
      +1.33333333333333 x1_16 +1.33333333333333 x1_17 +1.33333333333333 x1_18 +1.33333333333333 x1_19
      +1.33333333333333 x1_20 +1.33333333333333 x1_21 +1.33333333333333 x1_22 +1.33333333333333 x1_23
      +1.33333333333333 x1_24 +1.33333333333333 x1_25 +1.33333333333333 x1_26 +1.33333333333333 x1_27
      +1.33333333333333 x1_28 +1.33333333333333 x1_29 +1.33333333333333 x1_30 +1.33333333333333 x1_31
      +1.33333333333333 x1_32 +1.33333333333333 x1_33 +1.33333333333333 x1_34 +1.33333333333333 x1_35
      +1.33333333333333 x1_36 +1.33333333333333 x1_37 +1.33333333333333 x1_38 +1.33333333333333 x1_39
      +1.33333333333333 x1_40 +2.33333333333333 x2_2 +2.33333333333333 x2_3 +2.33333333333333 x2_4 +2.33333333333333 x2_5
      +2.33333333333333 x2_6 +2.33333333333333 x2_7 +2.33333333333333 x2_8 +2.33333333333333 x2_9 +2.33333333333333 x2_10
      +2.33333333333333 x2_11 +2.33333333333333 x2_12 +2.33333333333333 x2_13 +2.33333333333333 x2_14
      +2.33333333333333 x2_15 +2.33333333333333 x2_16 +2.33333333333333 x2_17 +2.33333333333333 x2_18
      +2.33333333333333 x2_19 +2.33333333333333 x2_20 +2.33333333333333 x2_21 +2.33333333333333 x2_22
      +2.33333333333333 x2_23 +2.33333333333333 x2_24 +2.33333333333333 x2_25 +2.33333333333333 x2_26
      +2.33333333333333 x2_27 +2.33333333333333 x2_28 +2.33333333333333 x2_29 +2.33333333333333 x2_30
      +2.33333333333333 x2_31 +2.33333333333333 x2_32 +2.33333333333333 x2_33 +2.33333333333333 x2_34
      +2.33333333333333 x2_35 +2.33333333333333 x2_36 +2.33333333333333 x2_37 +2.33333333333333 x2_38
      +2.33333333333333 x2_39 +2.33333333333333 x2_40 +0.333333333333333 x0_2 +0.333333333333333 x0_3
      +0.333333333333333 x0_4 +0.333333333333333 x0_5 +0.333333333333333 x0_6 +0.333333333333333 x0_7
      +0.333333333333333 x0_8 +0.333333333333333 x0_9 +0.333333333333333 x0_10 +0.333333333333333 x0_11
      +0.333333333333333 x0_12 +0.333333333333333 x0_13 +0.333333333333333 x0_14 +0.333333333333333 x0_15
      +0.333333333333333 x0_16 +0.333333333333333 x0_17 +0.333333333333333 x0_18 +0.333333333333333 x0_19
      +0.333333333333333 x0_20 +0.333333333333333 x0_21 +0.333333333333333 x0_22 +0.333333333333333 x0_23
      +0.333333333333333 x0_24 +0.333333333333333 x0_25 +0.333333333333333 x0_26 +0.333333333333333 x0_27
      +0.333333333333333 x0_28 +0.333333333333333 x0_29 +0.333333333333333 x0_30 +0.333333333333333 x0_31
      +0.333333333333333 x0_32 +0.333333333333333 x0_33 +0.333333333333333 x0_34 +0.333333333333333 x0_35
      +0.333333333333333 x0_36 +0.333333333333333 x0_37 +0.333333333333333 x0_38 +0.333333333333333 x0_39
      +0.333333333333333 x0_40
Subject to
 w_con2_0_0: +1 x0_2 -1 y0_2_0_0 -1 y0_2_1_0 +5 x1_2 -1 y1_2_0_0 -1 y1_2_1_0 +10 x2_2 -1 y2_2_0_0 -1 y2_2_1_0
  -1000 Z2 <= +1
 w_con2_0_1: +1 x0_2 -1 y0_2_0_0 -1 y0_2_1_1 +5 x1_2 -1 y1_2_0_0 -1 y1_2_1_1 +10 x2_2 -1 y2_2_0_0 -1 y2_2_1_1
  -1000 Z2 <= +1
 w_con2_0_2: +1 x0_2 -1 y0_2_0_0 -1 y0_2_1_2 +5 x1_2 -1 y1_2_0_0 -1 y1_2_1_2 +10 x2_2 -1 y2_2_0_0 -1 y2_2_1_2
  -1000 Z2 <= +1
 w_con2_1_0: +1 x0_3 -1 y0_3_0_0 -1 y0_3_1_0 +5 x1_3 -1 y1_3_0_0 -1 y1_3_1_0 +10 x2_3 -1 y2_3_0_0 -1 y2_3_1_0
  -1000 Z3 <= +1
 w_con2_1_1: +1 x0_3 -1 y0_3_0_0 -1 y0_3_1_1 +5 x1_3 -1 y1_3_0_0 -1 y1_3_1_1 +10 x2_3 -1 y2_3_0_0 -1 y2_3_1_1
  -1000 Z3 <= +1
 w_con2_1_2: +1 x0_3 -1 y0_3_0_0 -1 y0_3_1_2 +5 x1_3 -1 y1_3_0_0 -1 y1_3_1_2 +10 x2_3 -1 y2_3_0_0 -1 y2_3_1_2
  -1000 Z3 <= +1
 w_con2_2_0: +1 x0_4 -1 y0_4_0_0 -1 y0_4_1_0 +5 x1_4 -1 y1_4_0_0 -1 y1_4_1_0 +10 x2_4 -1 y2_4_0_0 -1 y2_4_1_0
  -1000 Z4 <= +1
 w_con2_2_1: +1 x0_4 -1 y0_4_0_0 -1 y0_4_1_1 +5 x1_4 -1 y1_4_0_0 -1 y1_4_1_1 +10 x2_4 -1 y2_4_0_0 -1 y2_4_1_1
  -1000 Z4 <= +1
 w_con2_2_2: +1 x0_4 -1 y0_4_0_0 -1 y0_4_1_2 +5 x1_4 -1 y1_4_0_0 -1 y1_4_1_2 +10 x2_4 -1 y2_4_0_0 -1 y2_4_1_2
  -1000 Z4 <= +1
 w_con3_0_0: +1 x0_5 -1 y0_5_0_0 -1 y0_5_1_0 +5 x1_5 -1 y1_5_0_0 -1 y1_5_1_0 +10 x2_5 -1 y2_5_0_0 -1 y2_5_1_0
  -1000 Z5 <= +1
 w_con3_0_1: +1 x0_5 -1 y0_5_0_0 -1 y0_5_1_1 +5 x1_5 -1 y1_5_0_0 -1 y1_5_1_1 +10 x2_5 -1 y2_5_0_0 -1 y2_5_1_1
  -1000 Z5 <= +1
 w_con3_0_2: +1 x0_5 -1 y0_5_0_0 -1 y0_5_1_2 +5 x1_5 -1 y1_5_0_0 -1 y1_5_1_2 +10 x2_5 -1 y2_5_0_0 -1 y2_5_1_2
  -1000 Z5 <= +1
 w_con3_1_0: +1 x0_6 -1 y0_6_0_0 -1 y0_6_1_0 +5 x1_6 -1 y1_6_0_0 -1 y1_6_1_0 +10 x2_6 -1 y2_6_0_0 -1 y2_6_1_0
  -1000 Z6 <= +1
 w_con3_1_1: +1 x0_6 -1 y0_6_0_0 -1 y0_6_1_1 +5 x1_6 -1 y1_6_0_0 -1 y1_6_1_1 +10 x2_6 -1 y2_6_0_0 -1 y2_6_1_1
  -1000 Z6 <= +1
 w_con3_1_2: +1 x0_6 -1 y0_6_0_0 -1 y0_6_1_2 +5 x1_6 -1 y1_6_0_0 -1 y1_6_1_2 +10 x2_6 -1 y2_6_0_0 -1 y2_6_1_2
  -1000 Z6 <= +1
 w_con3_2_0: +1 x0_7 -1 y0_7_0_0 -1 y0_7_1_0 +5 x1_7 -1 y1_7_0_0 -1 y1_7_1_0 +10 x2_7 -1 y2_7_0_0 -1 y2_7_1_0
  -1000 Z7 <= +1
 w_con3_2_1: +1 x0_7 -1 y0_7_0_0 -1 y0_7_1_1 +5 x1_7 -1 y1_7_0_0 -1 y1_7_1_1 +10 x2_7 -1 y2_7_0_0 -1 y2_7_1_1
  -1000 Z7 <= +1
 w_con3_2_2: +1 x0_7 -1 y0_7_0_0 -1 y0_7_1_2 +5 x1_7 -1 y1_7_0_0 -1 y1_7_1_2 +10 x2_7 -1 y2_7_0_0 -1 y2_7_1_2
  -1000 Z7 <= +1
 w_con3_3_0: +1 x0_8 -1 y0_8_0_0 -1 y0_8_1_0 +5 x1_8 -1 y1_8_0_0 -1 y1_8_1_0 +10 x2_8 -1 y2_8_0_0 -1 y2_8_1_0
  -1000 Z8 <= +1
 w_con3_3_1: +1 x0_8 -1 y0_8_0_0 -1 y0_8_1_1 +5 x1_8 -1 y1_8_0_0 -1 y1_8_1_1 +10 x2_8 -1 y2_8_0_0 -1 y2_8_1_1
  -1000 Z8 <= +1
 w_con3_3_2: +1 x0_8 -1 y0_8_0_0 -1 y0_8_1_2 +5 x1_8 -1 y1_8_0_0 -1 y1_8_1_2 +10 x2_8 -1 y2_8_0_0 -1 y2_8_1_2
  -1000 Z8 <= +1
 w_con3_4_0: +1 x0_9 -1 y0_9_0_0 -1 y0_9_1_0 +5 x1_9 -1 y1_9_0_0 -1 y1_9_1_0 +10 x2_9 -1 y2_9_0_0 -1 y2_9_1_0
  -1000 Z9 <= +1
 w_con3_4_1: +1 x0_9 -1 y0_9_0_0 -1 y0_9_1_1 +5 x1_9 -1 y1_9_0_0 -1 y1_9_1_1 +10 x2_9 -1 y2_9_0_0 -1 y2_9_1_1
  -1000 Z9 <= +1
 w_con3_4_2: +1 x0_9 -1 y0_9_0_0 -1 y0_9_1_2 +5 x1_9 -1 y1_9_0_0 -1 y1_9_1_2 +10 x2_9 -1 y2_9_0_0 -1 y2_9_1_2
  -1000 Z9 <= +1
 w_con3_5_0: +1 x0_10 -1 y0_10_0_0 -1 y0_10_1_0 +5 x1_10 -1 y1_10_0_0 -1 y1_10_1_0 +10 x2_10 -1 y2_10_0_0
  -1 y2_10_1_0 -1000 Z10 <= +1
 w_con3_5_1: +1 x0_10 -1 y0_10_0_0 -1 y0_10_1_1 +5 x1_10 -1 y1_10_0_0 -1 y1_10_1_1 +10 x2_10 -1 y2_10_0_0
  -1 y2_10_1_1 -1000 Z10 <= +1
 w_con3_5_2: +1 x0_10 -1 y0_10_0_0 -1 y0_10_1_2 +5 x1_10 -1 y1_10_0_0 -1 y1_10_1_2 +10 x2_10 -1 y2_10_0_0
  -1 y2_10_1_2 -1000 Z10 <= +1
 w_con3_6_0: +1 x0_11 -1 y0_11_0_0 -1 y0_11_1_0 +5 x1_11 -1 y1_11_0_0 -1 y1_11_1_0 +10 x2_11 -1 y2_11_0_0
  -1 y2_11_1_0 -1000 Z11 <= +1
 w_con3_6_1: +1 x0_11 -1 y0_11_0_0 -1 y0_11_1_1 +5 x1_11 -1 y1_11_0_0 -1 y1_11_1_1 +10 x2_11 -1 y2_11_0_0
  -1 y2_11_1_1 -1000 Z11 <= +1
 w_con3_6_2: +1 x0_11 -1 y0_11_0_0 -1 y0_11_1_2 +5 x1_11 -1 y1_11_0_0 -1 y1_11_1_2 +10 x2_11 -1 y2_11_0_0
  -1 y2_11_1_2 -1000 Z11 <= +1
 w_con3_7_0: +1 x0_12 -1 y0_12_0_0 -1 y0_12_1_0 +5 x1_12 -1 y1_12_0_0 -1 y1_12_1_0 +10 x2_12 -1 y2_12_0_0
  -1 y2_12_1_0 -1000 Z12 <= +1
 w_con3_7_1: +1 x0_12 -1 y0_12_0_0 -1 y0_12_1_1 +5 x1_12 -1 y1_12_0_0 -1 y1_12_1_1 +10 x2_12 -1 y2_12_0_0
  -1 y2_12_1_1 -1000 Z12 <= +1
 w_con3_7_2: +1 x0_12 -1 y0_12_0_0 -1 y0_12_1_2 +5 x1_12 -1 y1_12_0_0 -1 y1_12_1_2 +10 x2_12 -1 y2_12_0_0
  -1 y2_12_1_2 -1000 Z12 <= +1
 w_con3_8_0: +1 x0_13 -1 y0_13_0_0 -1 y0_13_1_0 +5 x1_13 -1 y1_13_0_0 -1 y1_13_1_0 +10 x2_13 -1 y2_13_0_0
  -1 y2_13_1_0 -1000 Z13 <= +1
 w_con3_8_1: +1 x0_13 -1 y0_13_0_0 -1 y0_13_1_1 +5 x1_13 -1 y1_13_0_0 -1 y1_13_1_1 +10 x2_13 -1 y2_13_0_0
  -1 y2_13_1_1 -1000 Z13 <= +1
 w_con3_8_2: +1 x0_13 -1 y0_13_0_0 -1 y0_13_1_2 +5 x1_13 -1 y1_13_0_0 -1 y1_13_1_2 +10 x2_13 -1 y2_13_0_0
  -1 y2_13_1_2 -1000 Z13 <= +1
 w_con4_0_0: +1 x0_14 -1 y0_14_0_0 +5 x1_14 -1 y1_14_0_0 +10 x2_14 -1 y2_14_0_0 -1000 Z14 <= +1
 w_con4_1_0: +1 x0_15 -1 y0_15_0_0 +5 x1_15 -1 y1_15_0_0 +10 x2_15 -1 y2_15_0_0 -1000 Z15 <= +1
 w_con4_2_0: +1 x0_16 -1 y0_16_0_0 +5 x1_16 -1 y1_16_0_0 +10 x2_16 -1 y2_16_0_0 -1000 Z16 <= +1
 w_con4_3_0: +1 x0_17 -1 y0_17_0_0 +5 x1_17 -1 y1_17_0_0 +10 x2_17 -1 y2_17_0_0 -1000 Z17 <= +1
 w_con4_4_0: +1 x0_18 -1 y0_18_0_0 +5 x1_18 -1 y1_18_0_0 +10 x2_18 -1 y2_18_0_0 -1000 Z18 <= +1
 w_con4_5_0: +1 x0_19 -1 y0_19_0_0 +5 x1_19 -1 y1_19_0_0 +10 x2_19 -1 y2_19_0_0 -1000 Z19 <= +1
 w_con4_6_0: +1 x0_20 -1 y0_20_0_0 +5 x1_20 -1 y1_20_0_0 +10 x2_20 -1 y2_20_0_0 -1000 Z20 <= +1
 w_con4_7_0: +1 x0_21 -1 y0_21_0_0 +5 x1_21 -1 y1_21_0_0 +10 x2_21 -1 y2_21_0_0 -1000 Z21 <= +1
 w_con4_8_0: +1 x0_22 -1 y0_22_0_0 +5 x1_22 -1 y1_22_0_0 +10 x2_22 -1 y2_22_0_0 -1000 Z22 <= +1
 w_con4_9_0: +1 x0_23 -1 y0_23_0_0 +5 x1_23 -1 y1_23_0_0 +10 x2_23 -1 y2_23_0_0 -1000 Z23 <= +1
 w_con4_10_0: +1 x0_24 -1 y0_24_0_0 +5 x1_24 -1 y1_24_0_0 +10 x2_24 -1 y2_24_0_0 -1000 Z24 <= +1
 w_con4_11_0: +1 x0_25 -1 y0_25_0_0 +5 x1_25 -1 y1_25_0_0 +10 x2_25 -1 y2_25_0_0 -1000 Z25 <= +1
 w_con4_12_0: +1 x0_26 -1 y0_26_0_0 +5 x1_26 -1 y1_26_0_0 +10 x2_26 -1 y2_26_0_0 -1000 Z26 <= +1
 w_con4_13_0: +1 x0_27 -1 y0_27_0_0 +5 x1_27 -1 y1_27_0_0 +10 x2_27 -1 y2_27_0_0 -1000 Z27 <= +1
 w_con4_14_0: +1 x0_28 -1 y0_28_0_0 +5 x1_28 -1 y1_28_0_0 +10 x2_28 -1 y2_28_0_0 -1000 Z28 <= +1
 w_con4_15_0: +1 x0_29 -1 y0_29_0_0 +5 x1_29 -1 y1_29_0_0 +10 x2_29 -1 y2_29_0_0 -1000 Z29 <= +1
 w_con4_16_0: +1 x0_30 -1 y0_30_0_0 +5 x1_30 -1 y1_30_0_0 +10 x2_30 -1 y2_30_0_0 -1000 Z30 <= +1
 w_con4_17_0: +1 x0_31 -1 y0_31_0_0 +5 x1_31 -1 y1_31_0_0 +10 x2_31 -1 y2_31_0_0 -1000 Z31 <= +1
 w_con4_18_0: +1 x0_32 -1 y0_32_0_0 +5 x1_32 -1 y1_32_0_0 +10 x2_32 -1 y2_32_0_0 -1000 Z32 <= +1
 w_con4_19_0: +1 x0_33 -1 y0_33_0_0 +5 x1_33 -1 y1_33_0_0 +10 x2_33 -1 y2_33_0_0 -1000 Z33 <= +1
 w_con4_20_0: +1 x0_34 -1 y0_34_0_0 +5 x1_34 -1 y1_34_0_0 +10 x2_34 -1 y2_34_0_0 -1000 Z34 <= +1
 w_con4_21_0: +1 x0_35 -1 y0_35_0_0 +5 x1_35 -1 y1_35_0_0 +10 x2_35 -1 y2_35_0_0 -1000 Z35 <= +1
 w_con4_22_0: +1 x0_36 -1 y0_36_0_0 +5 x1_36 -1 y1_36_0_0 +10 x2_36 -1 y2_36_0_0 -1000 Z36 <= +1
 w_con4_23_0: +1 x0_37 -1 y0_37_0_0 +5 x1_37 -1 y1_37_0_0 +10 x2_37 -1 y2_37_0_0 -1000 Z37 <= +1
 w_con4_24_0: +1 x0_38 -1 y0_38_0_0 +5 x1_38 -1 y1_38_0_0 +10 x2_38 -1 y2_38_0_0 -1000 Z38 <= +1
 w_con4_25_0: +1 x0_39 -1 y0_39_0_0 +5 x1_39 -1 y1_39_0_0 +10 x2_39 -1 y2_39_0_0 -1000 Z39 <= +1
 w_con4_26_0: +1 x0_40 -1 y0_40_0_0 +5 x1_40 -1 y1_40_0_0 +10 x2_40 -1 y2_40_0_0 -1000 Z40 <= +1
 sec_con0_2_0_0: +1 x0_2 -1 y0_2_0_0 -1 y0_2_1_0 >= +0
 sec_con0_2_0_1: +1 x0_2 -1 y0_2_0_0 -1 y0_2_1_1 >= +0
 sec_con0_2_0_2: +1 x0_2 -1 y0_2_0_0 -1 y0_2_1_2 >= +0
 sec_con0_2_1_0: +1 x0_3 -1 y0_3_0_0 -1 y0_3_1_0 >= +0
 sec_con0_2_1_1: +1 x0_3 -1 y0_3_0_0 -1 y0_3_1_1 >= +0
 sec_con0_2_1_2: +1 x0_3 -1 y0_3_0_0 -1 y0_3_1_2 >= +0
 sec_con0_2_2_0: +1 x0_4 -1 y0_4_0_0 -1 y0_4_1_0 >= +0
 sec_con0_2_2_1: +1 x0_4 -1 y0_4_0_0 -1 y0_4_1_1 >= +0
 sec_con0_2_2_2: +1 x0_4 -1 y0_4_0_0 -1 y0_4_1_2 >= +0
 sec_con0_3_0_0: +1 x0_5 -1 y0_5_0_0 -1 y0_5_1_0 >= +0
 sec_con0_3_0_1: +1 x0_5 -1 y0_5_0_0 -1 y0_5_1_1 >= +0
 sec_con0_3_0_2: +1 x0_5 -1 y0_5_0_0 -1 y0_5_1_2 >= +0
 sec_con0_3_1_0: +1 x0_6 -1 y0_6_0_0 -1 y0_6_1_0 >= +0
 sec_con0_3_1_1: +1 x0_6 -1 y0_6_0_0 -1 y0_6_1_1 >= +0
 sec_con0_3_1_2: +1 x0_6 -1 y0_6_0_0 -1 y0_6_1_2 >= +0
 sec_con0_3_2_0: +1 x0_7 -1 y0_7_0_0 -1 y0_7_1_0 >= +0
 sec_con0_3_2_1: +1 x0_7 -1 y0_7_0_0 -1 y0_7_1_1 >= +0
 sec_con0_3_2_2: +1 x0_7 -1 y0_7_0_0 -1 y0_7_1_2 >= +0
 sec_con0_3_3_0: +1 x0_8 -1 y0_8_0_0 -1 y0_8_1_0 >= +0
 sec_con0_3_3_1: +1 x0_8 -1 y0_8_0_0 -1 y0_8_1_1 >= +0
 sec_con0_3_3_2: +1 x0_8 -1 y0_8_0_0 -1 y0_8_1_2 >= +0
 sec_con0_3_4_0: +1 x0_9 -1 y0_9_0_0 -1 y0_9_1_0 >= +0
 sec_con0_3_4_1: +1 x0_9 -1 y0_9_0_0 -1 y0_9_1_1 >= +0
 sec_con0_3_4_2: +1 x0_9 -1 y0_9_0_0 -1 y0_9_1_2 >= +0
 sec_con0_3_5_0: +1 x0_10 -1 y0_10_0_0 -1 y0_10_1_0 >= +0
 sec_con0_3_5_1: +1 x0_10 -1 y0_10_0_0 -1 y0_10_1_1 >= +0
 sec_con0_3_5_2: +1 x0_10 -1 y0_10_0_0 -1 y0_10_1_2 >= +0
 sec_con0_3_6_0: +1 x0_11 -1 y0_11_0_0 -1 y0_11_1_0 >= +0
 sec_con0_3_6_1: +1 x0_11 -1 y0_11_0_0 -1 y0_11_1_1 >= +0
 sec_con0_3_6_2: +1 x0_11 -1 y0_11_0_0 -1 y0_11_1_2 >= +0
 sec_con0_3_7_0: +1 x0_12 -1 y0_12_0_0 -1 y0_12_1_0 >= +0
 sec_con0_3_7_1: +1 x0_12 -1 y0_12_0_0 -1 y0_12_1_1 >= +0
 sec_con0_3_7_2: +1 x0_12 -1 y0_12_0_0 -1 y0_12_1_2 >= +0
 sec_con0_3_8_0: +1 x0_13 -1 y0_13_0_0 -1 y0_13_1_0 >= +0
 sec_con0_3_8_1: +1 x0_13 -1 y0_13_0_0 -1 y0_13_1_1 >= +0
 sec_con0_3_8_2: +1 x0_13 -1 y0_13_0_0 -1 y0_13_1_2 >= +0
 sec_con0_4_0_0: +1 x0_14 -1 y0_14_0_0 >= +0
 sec_con0_4_1_0: +1 x0_15 -1 y0_15_0_0 >= +0
 sec_con0_4_2_0: +1 x0_16 -1 y0_16_0_0 >= +0
 sec_con0_4_3_0: +1 x0_17 -1 y0_17_0_0 >= +0
 sec_con0_4_4_0: +1 x0_18 -1 y0_18_0_0 >= +0
 sec_con0_4_5_0: +1 x0_19 -1 y0_19_0_0 >= +0
 sec_con0_4_6_0: +1 x0_20 -1 y0_20_0_0 >= +0
 sec_con0_4_7_0: +1 x0_21 -1 y0_21_0_0 >= +0
 sec_con0_4_8_0: +1 x0_22 -1 y0_22_0_0 >= +0
 sec_con0_4_9_0: +1 x0_23 -1 y0_23_0_0 >= +0
 sec_con0_4_10_0: +1 x0_24 -1 y0_24_0_0 >= +0
 sec_con0_4_11_0: +1 x0_25 -1 y0_25_0_0 >= +0
 sec_con0_4_12_0: +1 x0_26 -1 y0_26_0_0 >= +0
 sec_con0_4_13_0: +1 x0_27 -1 y0_27_0_0 >= +0
 sec_con0_4_14_0: +1 x0_28 -1 y0_28_0_0 >= +0
 sec_con0_4_15_0: +1 x0_29 -1 y0_29_0_0 >= +0
 sec_con0_4_16_0: +1 x0_30 -1 y0_30_0_0 >= +0
 sec_con0_4_17_0: +1 x0_31 -1 y0_31_0_0 >= +0
 sec_con0_4_18_0: +1 x0_32 -1 y0_32_0_0 >= +0
 sec_con0_4_19_0: +1 x0_33 -1 y0_33_0_0 >= +0
 sec_con0_4_20_0: +1 x0_34 -1 y0_34_0_0 >= +0
 sec_con0_4_21_0: +1 x0_35 -1 y0_35_0_0 >= +0
 sec_con0_4_22_0: +1 x0_36 -1 y0_36_0_0 >= +0
 sec_con0_4_23_0: +1 x0_37 -1 y0_37_0_0 >= +0
 sec_con0_4_24_0: +1 x0_38 -1 y0_38_0_0 >= +0
 sec_con0_4_25_0: +1 x0_39 -1 y0_39_0_0 >= +0
 sec_con0_4_26_0: +1 x0_40 -1 y0_40_0_0 >= +0
 sec_con1_2_0_0: +5 x1_2 -1 y1_2_0_0 -1 y1_2_1_0 >= +0
 sec_con1_2_0_1: +5 x1_2 -1 y1_2_0_0 -1 y1_2_1_1 >= +0
 sec_con1_2_0_2: +5 x1_2 -1 y1_2_0_0 -1 y1_2_1_2 >= +0
 sec_con1_2_1_0: +5 x1_3 -1 y1_3_0_0 -1 y1_3_1_0 >= +0
 sec_con1_2_1_1: +5 x1_3 -1 y1_3_0_0 -1 y1_3_1_1 >= +0
 sec_con1_2_1_2: +5 x1_3 -1 y1_3_0_0 -1 y1_3_1_2 >= +0
 sec_con1_2_2_0: +5 x1_4 -1 y1_4_0_0 -1 y1_4_1_0 >= +0
 sec_con1_2_2_1: +5 x1_4 -1 y1_4_0_0 -1 y1_4_1_1 >= +0
 sec_con1_2_2_2: +5 x1_4 -1 y1_4_0_0 -1 y1_4_1_2 >= +0
 sec_con1_3_0_0: +5 x1_5 -1 y1_5_0_0 -1 y1_5_1_0 >= +0
 sec_con1_3_0_1: +5 x1_5 -1 y1_5_0_0 -1 y1_5_1_1 >= +0
 sec_con1_3_0_2: +5 x1_5 -1 y1_5_0_0 -1 y1_5_1_2 >= +0
 sec_con1_3_1_0: +5 x1_6 -1 y1_6_0_0 -1 y1_6_1_0 >= +0
 sec_con1_3_1_1: +5 x1_6 -1 y1_6_0_0 -1 y1_6_1_1 >= +0
 sec_con1_3_1_2: +5 x1_6 -1 y1_6_0_0 -1 y1_6_1_2 >= +0
 sec_con1_3_2_0: +5 x1_7 -1 y1_7_0_0 -1 y1_7_1_0 >= +0
 sec_con1_3_2_1: +5 x1_7 -1 y1_7_0_0 -1 y1_7_1_1 >= +0
 sec_con1_3_2_2: +5 x1_7 -1 y1_7_0_0 -1 y1_7_1_2 >= +0
 sec_con1_3_3_0: +5 x1_8 -1 y1_8_0_0 -1 y1_8_1_0 >= +0
 sec_con1_3_3_1: +5 x1_8 -1 y1_8_0_0 -1 y1_8_1_1 >= +0
 sec_con1_3_3_2: +5 x1_8 -1 y1_8_0_0 -1 y1_8_1_2 >= +0
 sec_con1_3_4_0: +5 x1_9 -1 y1_9_0_0 -1 y1_9_1_0 >= +0
 sec_con1_3_4_1: +5 x1_9 -1 y1_9_0_0 -1 y1_9_1_1 >= +0
 sec_con1_3_4_2: +5 x1_9 -1 y1_9_0_0 -1 y1_9_1_2 >= +0
 sec_con1_3_5_0: +5 x1_10 -1 y1_10_0_0 -1 y1_10_1_0 >= +0
 sec_con1_3_5_1: +5 x1_10 -1 y1_10_0_0 -1 y1_10_1_1 >= +0
 sec_con1_3_5_2: +5 x1_10 -1 y1_10_0_0 -1 y1_10_1_2 >= +0
 sec_con1_3_6_0: +5 x1_11 -1 y1_11_0_0 -1 y1_11_1_0 >= +0
 sec_con1_3_6_1: +5 x1_11 -1 y1_11_0_0 -1 y1_11_1_1 >= +0
 sec_con1_3_6_2: +5 x1_11 -1 y1_11_0_0 -1 y1_11_1_2 >= +0
 sec_con1_3_7_0: +5 x1_12 -1 y1_12_0_0 -1 y1_12_1_0 >= +0
 sec_con1_3_7_1: +5 x1_12 -1 y1_12_0_0 -1 y1_12_1_1 >= +0
 sec_con1_3_7_2: +5 x1_12 -1 y1_12_0_0 -1 y1_12_1_2 >= +0
 sec_con1_3_8_0: +5 x1_13 -1 y1_13_0_0 -1 y1_13_1_0 >= +0
 sec_con1_3_8_1: +5 x1_13 -1 y1_13_0_0 -1 y1_13_1_1 >= +0
 sec_con1_3_8_2: +5 x1_13 -1 y1_13_0_0 -1 y1_13_1_2 >= +0
 sec_con1_4_0_0: +5 x1_14 -1 y1_14_0_0 >= +0
 sec_con1_4_1_0: +5 x1_15 -1 y1_15_0_0 >= +0
 sec_con1_4_2_0: +5 x1_16 -1 y1_16_0_0 >= +0
 sec_con1_4_3_0: +5 x1_17 -1 y1_17_0_0 >= +0
 sec_con1_4_4_0: +5 x1_18 -1 y1_18_0_0 >= +0
 sec_con1_4_5_0: +5 x1_19 -1 y1_19_0_0 >= +0
 sec_con1_4_6_0: +5 x1_20 -1 y1_20_0_0 >= +0
 sec_con1_4_7_0: +5 x1_21 -1 y1_21_0_0 >= +0
 sec_con1_4_8_0: +5 x1_22 -1 y1_22_0_0 >= +0
 sec_con1_4_9_0: +5 x1_23 -1 y1_23_0_0 >= +0
 sec_con1_4_10_0: +5 x1_24 -1 y1_24_0_0 >= +0
 sec_con1_4_11_0: +5 x1_25 -1 y1_25_0_0 >= +0
 sec_con1_4_12_0: +5 x1_26 -1 y1_26_0_0 >= +0
 sec_con1_4_13_0: +5 x1_27 -1 y1_27_0_0 >= +0
 sec_con1_4_14_0: +5 x1_28 -1 y1_28_0_0 >= +0
 sec_con1_4_15_0: +5 x1_29 -1 y1_29_0_0 >= +0
 sec_con1_4_16_0: +5 x1_30 -1 y1_30_0_0 >= +0
 sec_con1_4_17_0: +5 x1_31 -1 y1_31_0_0 >= +0
 sec_con1_4_18_0: +5 x1_32 -1 y1_32_0_0 >= +0
 sec_con1_4_19_0: +5 x1_33 -1 y1_33_0_0 >= +0
 sec_con1_4_20_0: +5 x1_34 -1 y1_34_0_0 >= +0
 sec_con1_4_21_0: +5 x1_35 -1 y1_35_0_0 >= +0
 sec_con1_4_22_0: +5 x1_36 -1 y1_36_0_0 >= +0
 sec_con1_4_23_0: +5 x1_37 -1 y1_37_0_0 >= +0
 sec_con1_4_24_0: +5 x1_38 -1 y1_38_0_0 >= +0
 sec_con1_4_25_0: +5 x1_39 -1 y1_39_0_0 >= +0
 sec_con1_4_26_0: +5 x1_40 -1 y1_40_0_0 >= +0
 sec_con2_2_0_0: +10 x2_2 -1 y2_2_0_0 -1 y2_2_1_0 >= +0
 sec_con2_2_0_1: +10 x2_2 -1 y2_2_0_0 -1 y2_2_1_1 >= +0
 sec_con2_2_0_2: +10 x2_2 -1 y2_2_0_0 -1 y2_2_1_2 >= +0
 sec_con2_2_1_0: +10 x2_3 -1 y2_3_0_0 -1 y2_3_1_0 >= +0
 sec_con2_2_1_1: +10 x2_3 -1 y2_3_0_0 -1 y2_3_1_1 >= +0
 sec_con2_2_1_2: +10 x2_3 -1 y2_3_0_0 -1 y2_3_1_2 >= +0
 sec_con2_2_2_0: +10 x2_4 -1 y2_4_0_0 -1 y2_4_1_0 >= +0
 sec_con2_2_2_1: +10 x2_4 -1 y2_4_0_0 -1 y2_4_1_1 >= +0
 sec_con2_2_2_2: +10 x2_4 -1 y2_4_0_0 -1 y2_4_1_2 >= +0
 sec_con2_3_0_0: +10 x2_5 -1 y2_5_0_0 -1 y2_5_1_0 >= +0
 sec_con2_3_0_1: +10 x2_5 -1 y2_5_0_0 -1 y2_5_1_1 >= +0
 sec_con2_3_0_2: +10 x2_5 -1 y2_5_0_0 -1 y2_5_1_2 >= +0
 sec_con2_3_1_0: +10 x2_6 -1 y2_6_0_0 -1 y2_6_1_0 >= +0
 sec_con2_3_1_1: +10 x2_6 -1 y2_6_0_0 -1 y2_6_1_1 >= +0
 sec_con2_3_1_2: +10 x2_6 -1 y2_6_0_0 -1 y2_6_1_2 >= +0
 sec_con2_3_2_0: +10 x2_7 -1 y2_7_0_0 -1 y2_7_1_0 >= +0
 sec_con2_3_2_1: +10 x2_7 -1 y2_7_0_0 -1 y2_7_1_1 >= +0
 sec_con2_3_2_2: +10 x2_7 -1 y2_7_0_0 -1 y2_7_1_2 >= +0
 sec_con2_3_3_0: +10 x2_8 -1 y2_8_0_0 -1 y2_8_1_0 >= +0
 sec_con2_3_3_1: +10 x2_8 -1 y2_8_0_0 -1 y2_8_1_1 >= +0
 sec_con2_3_3_2: +10 x2_8 -1 y2_8_0_0 -1 y2_8_1_2 >= +0
 sec_con2_3_4_0: +10 x2_9 -1 y2_9_0_0 -1 y2_9_1_0 >= +0
 sec_con2_3_4_1: +10 x2_9 -1 y2_9_0_0 -1 y2_9_1_1 >= +0
 sec_con2_3_4_2: +10 x2_9 -1 y2_9_0_0 -1 y2_9_1_2 >= +0
 sec_con2_3_5_0: +10 x2_10 -1 y2_10_0_0 -1 y2_10_1_0 >= +0
 sec_con2_3_5_1: +10 x2_10 -1 y2_10_0_0 -1 y2_10_1_1 >= +0
 sec_con2_3_5_2: +10 x2_10 -1 y2_10_0_0 -1 y2_10_1_2 >= +0
 sec_con2_3_6_0: +10 x2_11 -1 y2_11_0_0 -1 y2_11_1_0 >= +0
 sec_con2_3_6_1: +10 x2_11 -1 y2_11_0_0 -1 y2_11_1_1 >= +0
 sec_con2_3_6_2: +10 x2_11 -1 y2_11_0_0 -1 y2_11_1_2 >= +0
 sec_con2_3_7_0: +10 x2_12 -1 y2_12_0_0 -1 y2_12_1_0 >= +0
 sec_con2_3_7_1: +10 x2_12 -1 y2_12_0_0 -1 y2_12_1_1 >= +0
 sec_con2_3_7_2: +10 x2_12 -1 y2_12_0_0 -1 y2_12_1_2 >= +0
 sec_con2_3_8_0: +10 x2_13 -1 y2_13_0_0 -1 y2_13_1_0 >= +0
 sec_con2_3_8_1: +10 x2_13 -1 y2_13_0_0 -1 y2_13_1_1 >= +0
 sec_con2_3_8_2: +10 x2_13 -1 y2_13_0_0 -1 y2_13_1_2 >= +0
 sec_con2_4_0_0: +10 x2_14 -1 y2_14_0_0 >= +0
 sec_con2_4_1_0: +10 x2_15 -1 y2_15_0_0 >= +0
 sec_con2_4_2_0: +10 x2_16 -1 y2_16_0_0 >= +0
 sec_con2_4_3_0: +10 x2_17 -1 y2_17_0_0 >= +0
 sec_con2_4_4_0: +10 x2_18 -1 y2_18_0_0 >= +0
 sec_con2_4_5_0: +10 x2_19 -1 y2_19_0_0 >= +0
 sec_con2_4_6_0: +10 x2_20 -1 y2_20_0_0 >= +0
 sec_con2_4_7_0: +10 x2_21 -1 y2_21_0_0 >= +0
 sec_con2_4_8_0: +10 x2_22 -1 y2_22_0_0 >= +0
 sec_con2_4_9_0: +10 x2_23 -1 y2_23_0_0 >= +0
 sec_con2_4_10_0: +10 x2_24 -1 y2_24_0_0 >= +0
 sec_con2_4_11_0: +10 x2_25 -1 y2_25_0_0 >= +0
 sec_con2_4_12_0: +10 x2_26 -1 y2_26_0_0 >= +0
 sec_con2_4_13_0: +10 x2_27 -1 y2_27_0_0 >= +0
 sec_con2_4_14_0: +10 x2_28 -1 y2_28_0_0 >= +0
 sec_con2_4_15_0: +10 x2_29 -1 y2_29_0_0 >= +0
 sec_con2_4_16_0: +10 x2_30 -1 y2_30_0_0 >= +0
 sec_con2_4_17_0: +10 x2_31 -1 y2_31_0_0 >= +0
 sec_con2_4_18_0: +10 x2_32 -1 y2_32_0_0 >= +0
 sec_con2_4_19_0: +10 x2_33 -1 y2_33_0_0 >= +0
 sec_con2_4_20_0: +10 x2_34 -1 y2_34_0_0 >= +0
 sec_con2_4_21_0: +10 x2_35 -1 y2_35_0_0 >= +0
 sec_con2_4_22_0: +10 x2_36 -1 y2_36_0_0 >= +0
 sec_con2_4_23_0: +10 x2_37 -1 y2_37_0_0 >= +0
 sec_con2_4_24_0: +10 x2_38 -1 y2_38_0_0 >= +0
 sec_con2_4_25_0: +10 x2_39 -1 y2_39_0_0 >= +0
 sec_con2_4_26_0: +10 x2_40 -1 y2_40_0_0 >= +0
 sh_con2_0_0: +3 Z14 +1 y0_2_0_0 +1 y1_2_0_0 +1 y2_2_0_0 >= +2
 sh_con2_0_1: +3 Z15 +1 y0_2_0_0 +1 y1_2_0_0 +1 y2_2_0_0 >= +2
 sh_con2_0_2: +3 Z16 +1 y0_2_0_0 +1 y1_2_0_0 +1 y2_2_0_0 >= +2
 sh_con2_0_3: +3 Z17 +1 y0_2_0_0 +1 y1_2_0_0 +1 y2_2_0_0 >= +2
 sh_con2_0_4: +3 Z18 +1 y0_2_0_0 +1 y1_2_0_0 +1 y2_2_0_0 >= +2
 sh_con2_0_5: +3 Z19 +1 y0_2_0_0 +1 y1_2_0_0 +1 y2_2_0_0 >= +2
 sh_con2_0_6: +3 Z20 +1 y0_2_0_0 +1 y1_2_0_0 +1 y2_2_0_0 >= +2
 sh_con2_0_7: +3 Z21 +1 y0_2_0_0 +1 y1_2_0_0 +1 y2_2_0_0 >= +2
 sh_con2_0_8: +3 Z22 +1 y0_2_0_0 +1 y1_2_0_0 +1 y2_2_0_0 >= +2
 sh_con2_1_0: +6 Z23 +1 y0_3_0_0 +1 y1_3_0_0 +1 y2_3_0_0 >= +5
 sh_con2_1_1: +6 Z24 +1 y0_3_0_0 +1 y1_3_0_0 +1 y2_3_0_0 >= +5
 sh_con2_1_2: +6 Z25 +1 y0_3_0_0 +1 y1_3_0_0 +1 y2_3_0_0 >= +5
 sh_con2_1_3: +6 Z26 +1 y0_3_0_0 +1 y1_3_0_0 +1 y2_3_0_0 >= +5
 sh_con2_1_4: +6 Z27 +1 y0_3_0_0 +1 y1_3_0_0 +1 y2_3_0_0 >= +5
 sh_con2_1_5: +6 Z28 +1 y0_3_0_0 +1 y1_3_0_0 +1 y2_3_0_0 >= +5
 sh_con2_1_6: +6 Z29 +1 y0_3_0_0 +1 y1_3_0_0 +1 y2_3_0_0 >= +5
 sh_con2_1_7: +6 Z30 +1 y0_3_0_0 +1 y1_3_0_0 +1 y2_3_0_0 >= +5
 sh_con2_1_8: +6 Z31 +1 y0_3_0_0 +1 y1_3_0_0 +1 y2_3_0_0 >= +5
 sh_con2_2_0: +5 Z32 +1 y0_4_0_0 +1 y1_4_0_0 +1 y2_4_0_0 >= +4
 sh_con2_2_1: +5 Z33 +1 y0_4_0_0 +1 y1_4_0_0 +1 y2_4_0_0 >= +4
 sh_con2_2_2: +5 Z34 +1 y0_4_0_0 +1 y1_4_0_0 +1 y2_4_0_0 >= +4
 sh_con2_2_3: +5 Z35 +1 y0_4_0_0 +1 y1_4_0_0 +1 y2_4_0_0 >= +4
 sh_con2_2_4: +5 Z36 +1 y0_4_0_0 +1 y1_4_0_0 +1 y2_4_0_0 >= +4
 sh_con2_2_5: +5 Z37 +1 y0_4_0_0 +1 y1_4_0_0 +1 y2_4_0_0 >= +4
 sh_con2_2_6: +5 Z38 +1 y0_4_0_0 +1 y1_4_0_0 +1 y2_4_0_0 >= +4
 sh_con2_2_7: +5 Z39 +1 y0_4_0_0 +1 y1_4_0_0 +1 y2_4_0_0 >= +4
 sh_con2_2_8: +5 Z40 +1 y0_4_0_0 +1 y1_4_0_0 +1 y2_4_0_0 >= +4
 sh_con3_0_0: +3 Z14 +1 y0_5_0_0 +1 y0_2_1_0 +1 y1_5_0_0 +1 y1_2_1_0 +1 y2_5_0_0 +1 y2_2_1_0 >= +2
 sh_con3_0_1: +3 Z15 +1 y0_5_0_0 +1 y0_2_1_0 +1 y1_5_0_0 +1 y1_2_1_0 +1 y2_5_0_0 +1 y2_2_1_0 >= +2
 sh_con3_0_2: +3 Z16 +1 y0_5_0_0 +1 y0_2_1_0 +1 y1_5_0_0 +1 y1_2_1_0 +1 y2_5_0_0 +1 y2_2_1_0 >= +2
 sh_con3_1_0: +7 Z17 +1 y0_6_0_0 +1 y0_2_1_1 +1 y1_6_0_0 +1 y1_2_1_1 +1 y2_6_0_0 +1 y2_2_1_1 >= +6
 sh_con3_1_1: +7 Z18 +1 y0_6_0_0 +1 y0_2_1_1 +1 y1_6_0_0 +1 y1_2_1_1 +1 y2_6_0_0 +1 y2_2_1_1 >= +6
 sh_con3_1_2: +7 Z19 +1 y0_6_0_0 +1 y0_2_1_1 +1 y1_6_0_0 +1 y1_2_1_1 +1 y2_6_0_0 +1 y2_2_1_1 >= +6
 sh_con3_2_0: +3 Z20 +1 y0_7_0_0 +1 y0_2_1_2 +1 y1_7_0_0 +1 y1_2_1_2 +1 y2_7_0_0 +1 y2_2_1_2 >= +2
 sh_con3_2_1: +3 Z21 +1 y0_7_0_0 +1 y0_2_1_2 +1 y1_7_0_0 +1 y1_2_1_2 +1 y2_7_0_0 +1 y2_2_1_2 >= +2
 sh_con3_2_2: +3 Z22 +1 y0_7_0_0 +1 y0_2_1_2 +1 y1_7_0_0 +1 y1_2_1_2 +1 y2_7_0_0 +1 y2_2_1_2 >= +2
 sh_con3_3_0: +6 Z23 +1 y0_8_0_0 +1 y0_3_1_0 +1 y1_8_0_0 +1 y1_3_1_0 +1 y2_8_0_0 +1 y2_3_1_0 >= +5
 sh_con3_3_1: +6 Z24 +1 y0_8_0_0 +1 y0_3_1_0 +1 y1_8_0_0 +1 y1_3_1_0 +1 y2_8_0_0 +1 y2_3_1_0 >= +5
 sh_con3_3_2: +6 Z25 +1 y0_8_0_0 +1 y0_3_1_0 +1 y1_8_0_0 +1 y1_3_1_0 +1 y2_8_0_0 +1 y2_3_1_0 >= +5
 sh_con3_4_0: +2 Z26 +1 y0_9_0_0 +1 y0_3_1_1 +1 y1_9_0_0 +1 y1_3_1_1 +1 y2_9_0_0 +1 y2_3_1_1 >= +1
 sh_con3_4_1: +2 Z27 +1 y0_9_0_0 +1 y0_3_1_1 +1 y1_9_0_0 +1 y1_3_1_1 +1 y2_9_0_0 +1 y2_3_1_1 >= +1
 sh_con3_4_2: +2 Z28 +1 y0_9_0_0 +1 y0_3_1_1 +1 y1_9_0_0 +1 y1_3_1_1 +1 y2_9_0_0 +1 y2_3_1_1 >= +1
 sh_con3_5_0: +5 Z29 +1 y0_10_0_0 +1 y0_3_1_2 +1 y1_10_0_0 +1 y1_3_1_2 +1 y2_10_0_0 +1 y2_3_1_2 >= +4
 sh_con3_5_1: +5 Z30 +1 y0_10_0_0 +1 y0_3_1_2 +1 y1_10_0_0 +1 y1_3_1_2 +1 y2_10_0_0 +1 y2_3_1_2 >= +4
 sh_con3_5_2: +5 Z31 +1 y0_10_0_0 +1 y0_3_1_2 +1 y1_10_0_0 +1 y1_3_1_2 +1 y2_10_0_0 +1 y2_3_1_2 >= +4
 sh_con3_6_0: +3 Z32 +1 y0_11_0_0 +1 y0_4_1_0 +1 y1_11_0_0 +1 y1_4_1_0 +1 y2_11_0_0 +1 y2_4_1_0 >= +2
 sh_con3_6_1: +3 Z33 +1 y0_11_0_0 +1 y0_4_1_0 +1 y1_11_0_0 +1 y1_4_1_0 +1 y2_11_0_0 +1 y2_4_1_0 >= +2
 sh_con3_6_2: +3 Z34 +1 y0_11_0_0 +1 y0_4_1_0 +1 y1_11_0_0 +1 y1_4_1_0 +1 y2_11_0_0 +1 y2_4_1_0 >= +2
 sh_con3_7_0: +4 Z35 +1 y0_12_0_0 +1 y0_4_1_1 +1 y1_12_0_0 +1 y1_4_1_1 +1 y2_12_0_0 +1 y2_4_1_1 >= +3
 sh_con3_7_1: +4 Z36 +1 y0_12_0_0 +1 y0_4_1_1 +1 y1_12_0_0 +1 y1_4_1_1 +1 y2_12_0_0 +1 y2_4_1_1 >= +3
 sh_con3_7_2: +4 Z37 +1 y0_12_0_0 +1 y0_4_1_1 +1 y1_12_0_0 +1 y1_4_1_1 +1 y2_12_0_0 +1 y2_4_1_1 >= +3
 sh_con3_8_0: +3 Z38 +1 y0_13_0_0 +1 y0_4_1_2 +1 y1_13_0_0 +1 y1_4_1_2 +1 y2_13_0_0 +1 y2_4_1_2 >= +2
 sh_con3_8_1: +3 Z39 +1 y0_13_0_0 +1 y0_4_1_2 +1 y1_13_0_0 +1 y1_4_1_2 +1 y2_13_0_0 +1 y2_4_1_2 >= +2
 sh_con3_8_2: +3 Z40 +1 y0_13_0_0 +1 y0_4_1_2 +1 y1_13_0_0 +1 y1_4_1_2 +1 y2_13_0_0 +1 y2_4_1_2 >= +2
 sh_con4_0_0: +4 Z14 +1 y0_14_0_0 +1 y0_5_1_0 +1 y1_14_0_0 +1 y1_5_1_0 +1 y2_14_0_0 +1 y2_5_1_0 >= +3
 sh_con4_1_0: +3 Z15 +1 y0_15_0_0 +1 y0_5_1_1 +1 y1_15_0_0 +1 y1_5_1_1 +1 y2_15_0_0 +1 y2_5_1_1 >= +2
 sh_con4_2_0: +7 Z16 +1 y0_16_0_0 +1 y0_5_1_2 +1 y1_16_0_0 +1 y1_5_1_2 +1 y2_16_0_0 +1 y2_5_1_2 >= +6
 sh_con4_3_0: +6 Z17 +1 y0_17_0_0 +1 y0_6_1_0 +1 y1_17_0_0 +1 y1_6_1_0 +1 y2_17_0_0 +1 y2_6_1_0 >= +5
 sh_con4_4_0: +2 Z18 +1 y0_18_0_0 +1 y0_6_1_1 +1 y1_18_0_0 +1 y1_6_1_1 +1 y2_18_0_0 +1 y2_6_1_1 >= +1
 sh_con4_5_0: +2 Z19 +1 y0_19_0_0 +1 y0_6_1_2 +1 y1_19_0_0 +1 y1_6_1_2 +1 y2_19_0_0 +1 y2_6_1_2 >= +1
 sh_con4_6_0: +6 Z20 +1 y0_20_0_0 +1 y0_7_1_0 +1 y1_20_0_0 +1 y1_7_1_0 +1 y2_20_0_0 +1 y2_7_1_0 >= +5
 sh_con4_7_0: +6 Z21 +1 y0_21_0_0 +1 y0_7_1_1 +1 y1_21_0_0 +1 y1_7_1_1 +1 y2_21_0_0 +1 y2_7_1_1 >= +5
 sh_con4_8_0: +7 Z22 +1 y0_22_0_0 +1 y0_7_1_2 +1 y1_22_0_0 +1 y1_7_1_2 +1 y2_22_0_0 +1 y2_7_1_2 >= +6
 sh_con4_9_0: +4 Z23 +1 y0_23_0_0 +1 y0_8_1_0 +1 y1_23_0_0 +1 y1_8_1_0 +1 y2_23_0_0 +1 y2_8_1_0 >= +3
 sh_con4_10_0: +5 Z24 +1 y0_24_0_0 +1 y0_8_1_1 +1 y1_24_0_0 +1 y1_8_1_1 +1 y2_24_0_0 +1 y2_8_1_1 >= +4
 sh_con4_11_0: +5 Z25 +1 y0_25_0_0 +1 y0_8_1_2 +1 y1_25_0_0 +1 y1_8_1_2 +1 y2_25_0_0 +1 y2_8_1_2 >= +4
 sh_con4_12_0: +4 Z26 +1 y0_26_0_0 +1 y0_9_1_0 +1 y1_26_0_0 +1 y1_9_1_0 +1 y2_26_0_0 +1 y2_9_1_0 >= +3
 sh_con4_13_0: +4 Z27 +1 y0_27_0_0 +1 y0_9_1_1 +1 y1_27_0_0 +1 y1_9_1_1 +1 y2_27_0_0 +1 y2_9_1_1 >= +3
 sh_con4_14_0: +4 Z28 +1 y0_28_0_0 +1 y0_9_1_2 +1 y1_28_0_0 +1 y1_9_1_2 +1 y2_28_0_0 +1 y2_9_1_2 >= +3
 sh_con4_15_0: +3 Z29 +1 y0_29_0_0 +1 y0_10_1_0 +1 y1_29_0_0 +1 y1_10_1_0 +1 y2_29_0_0 +1 y2_10_1_0 >= +2
 sh_con4_16_0: +3 Z30 +1 y0_30_0_0 +1 y0_10_1_1 +1 y1_30_0_0 +1 y1_10_1_1 +1 y2_30_0_0 +1 y2_10_1_1 >= +2
 sh_con4_17_0: +3 Z31 +1 y0_31_0_0 +1 y0_10_1_2 +1 y1_31_0_0 +1 y1_10_1_2 +1 y2_31_0_0 +1 y2_10_1_2 >= +2
 sh_con4_18_0: +7 Z32 +1 y0_32_0_0 +1 y0_11_1_0 +1 y1_32_0_0 +1 y1_11_1_0 +1 y2_32_0_0 +1 y2_11_1_0 >= +6
 sh_con4_19_0: +2 Z33 +1 y0_33_0_0 +1 y0_11_1_1 +1 y1_33_0_0 +1 y1_11_1_1 +1 y2_33_0_0 +1 y2_11_1_1 >= +1
 sh_con4_20_0: +2 Z34 +1 y0_34_0_0 +1 y0_11_1_2 +1 y1_34_0_0 +1 y1_11_1_2 +1 y2_34_0_0 +1 y2_11_1_2 >= +1
 sh_con4_21_0: +2 Z35 +1 y0_35_0_0 +1 y0_12_1_0 +1 y1_35_0_0 +1 y1_12_1_0 +1 y2_35_0_0 +1 y2_12_1_0 >= +1
 sh_con4_22_0: +7 Z36 +1 y0_36_0_0 +1 y0_12_1_1 +1 y1_36_0_0 +1 y1_12_1_1 +1 y2_36_0_0 +1 y2_12_1_1 >= +6
 sh_con4_23_0: +5 Z37 +1 y0_37_0_0 +1 y0_12_1_2 +1 y1_37_0_0 +1 y1_12_1_2 +1 y2_37_0_0 +1 y2_12_1_2 >= +4
 sh_con4_24_0: +3 Z38 +1 y0_38_0_0 +1 y0_13_1_0 +1 y1_38_0_0 +1 y1_13_1_0 +1 y2_38_0_0 +1 y2_13_1_0 >= +2
 sh_con4_25_0: +6 Z39 +1 y0_39_0_0 +1 y0_13_1_1 +1 y1_39_0_0 +1 y1_13_1_1 +1 y2_39_0_0 +1 y2_13_1_1 >= +5
 sh_con4_26_0: +3 Z40 +1 y0_40_0_0 +1 y0_13_1_2 +1 y1_40_0_0 +1 y1_13_1_2 +1 y2_40_0_0 +1 y2_13_1_2 >= +2
 z_con0_2: +1 Z14 -1 Z2 >= +0
 z_con0_3: +1 Z14 -1 Z5 >= +0
 z_con0_4: +1 Z14 -1 Z14 >= +0
 z_con1_2: +1 Z15 -1 Z2 >= +0
 z_con1_3: +1 Z15 -1 Z5 >= +0
 z_con1_4: +1 Z15 -1 Z15 >= +0
 z_con2_2: +1 Z16 -1 Z2 >= +0
 z_con2_3: +1 Z16 -1 Z5 >= +0
 z_con2_4: +1 Z16 -1 Z16 >= +0
 z_con3_2: +1 Z17 -1 Z2 >= +0
 z_con3_3: +1 Z17 -1 Z6 >= +0
 z_con3_4: +1 Z17 -1 Z17 >= +0
 z_con4_2: +1 Z18 -1 Z2 >= +0
 z_con4_3: +1 Z18 -1 Z6 >= +0
 z_con4_4: +1 Z18 -1 Z18 >= +0
 z_con5_2: +1 Z19 -1 Z2 >= +0
 z_con5_3: +1 Z19 -1 Z6 >= +0
 z_con5_4: +1 Z19 -1 Z19 >= +0
 z_con6_2: +1 Z20 -1 Z2 >= +0
 z_con6_3: +1 Z20 -1 Z7 >= +0
 z_con6_4: +1 Z20 -1 Z20 >= +0
 z_con7_2: +1 Z21 -1 Z2 >= +0
 z_con7_3: +1 Z21 -1 Z7 >= +0
 z_con7_4: +1 Z21 -1 Z21 >= +0
 z_con8_2: +1 Z22 -1 Z2 >= +0
 z_con8_3: +1 Z22 -1 Z7 >= +0
 z_con8_4: +1 Z22 -1 Z22 >= +0
 z_con9_2: +1 Z23 -1 Z3 >= +0
 z_con9_3: +1 Z23 -1 Z8 >= +0
 z_con9_4: +1 Z23 -1 Z23 >= +0
 z_con10_2: +1 Z24 -1 Z3 >= +0
 z_con10_3: +1 Z24 -1 Z8 >= +0
 z_con10_4: +1 Z24 -1 Z24 >= +0
 z_con11_2: +1 Z25 -1 Z3 >= +0
 z_con11_3: +1 Z25 -1 Z8 >= +0
 z_con11_4: +1 Z25 -1 Z25 >= +0
 z_con12_2: +1 Z26 -1 Z3 >= +0
 z_con12_3: +1 Z26 -1 Z9 >= +0
 z_con12_4: +1 Z26 -1 Z26 >= +0
 z_con13_2: +1 Z27 -1 Z3 >= +0
 z_con13_3: +1 Z27 -1 Z9 >= +0
 z_con13_4: +1 Z27 -1 Z27 >= +0
 z_con14_2: +1 Z28 -1 Z3 >= +0
 z_con14_3: +1 Z28 -1 Z9 >= +0
 z_con14_4: +1 Z28 -1 Z28 >= +0
 z_con15_2: +1 Z29 -1 Z3 >= +0
 z_con15_3: +1 Z29 -1 Z10 >= +0
 z_con15_4: +1 Z29 -1 Z29 >= +0
 z_con16_2: +1 Z30 -1 Z3 >= +0
 z_con16_3: +1 Z30 -1 Z10 >= +0
 z_con16_4: +1 Z30 -1 Z30 >= +0
 z_con17_2: +1 Z31 -1 Z3 >= +0
 z_con17_3: +1 Z31 -1 Z10 >= +0
 z_con17_4: +1 Z31 -1 Z31 >= +0
 z_con18_2: +1 Z32 -1 Z4 >= +0
 z_con18_3: +1 Z32 -1 Z11 >= +0
 z_con18_4: +1 Z32 -1 Z32 >= +0
 z_con19_2: +1 Z33 -1 Z4 >= +0
 z_con19_3: +1 Z33 -1 Z11 >= +0
 z_con19_4: +1 Z33 -1 Z33 >= +0
 z_con20_2: +1 Z34 -1 Z4 >= +0
 z_con20_3: +1 Z34 -1 Z11 >= +0
 z_con20_4: +1 Z34 -1 Z34 >= +0
 z_con21_2: +1 Z35 -1 Z4 >= +0
 z_con21_3: +1 Z35 -1 Z12 >= +0
 z_con21_4: +1 Z35 -1 Z35 >= +0
 z_con22_2: +1 Z36 -1 Z4 >= +0
 z_con22_3: +1 Z36 -1 Z12 >= +0
 z_con22_4: +1 Z36 -1 Z36 >= +0
 z_con23_2: +1 Z37 -1 Z4 >= +0
 z_con23_3: +1 Z37 -1 Z12 >= +0
 z_con23_4: +1 Z37 -1 Z37 >= +0
 z_con24_2: +1 Z38 -1 Z4 >= +0
 z_con24_3: +1 Z38 -1 Z13 >= +0
 z_con24_4: +1 Z38 -1 Z38 >= +0
 z_con25_2: +1 Z39 -1 Z4 >= +0
 z_con25_3: +1 Z39 -1 Z13 >= +0
 z_con25_4: +1 Z39 -1 Z39 >= +0
 z_con26_2: +1 Z40 -1 Z4 >= +0
 z_con26_3: +1 Z40 -1 Z13 >= +0
 z_con26_4: +1 Z40 -1 Z40 >= +0
 AlphaCon: +0.037037037037037 Z14 +0.037037037037037 Z15 +0.037037037037037 Z16 +0.037037037037037 Z17
  +0.037037037037037 Z18 +0.037037037037037 Z19 +0.037037037037037 Z20 +0.037037037037037 Z21 +0.037037037037037 Z22
  +0.037037037037037 Z23 +0.037037037037037 Z24 +0.037037037037037 Z25 +0.037037037037037 Z26 +0.037037037037037 Z27
  +0.037037037037037 Z28 +0.037037037037037 Z29 +0.037037037037037 Z30 +0.037037037037037 Z31 +0.037037037037037 Z32
  +0.037037037037037 Z33 +0.037037037037037 Z34 +0.037037037037037 Z35 +0.037037037037037 Z36 +0.037037037037037 Z37
  +0.037037037037037 Z38 +0.037037037037037 Z39 +0.037037037037037 Z40 <= +0.1
Bounds
 0 <= Z2 <= 1
 0 <= Z3 <= 1
 0 <= Z4 <= 1
 0 <= Z5 <= 1
 0 <= Z6 <= 1
 0 <= Z7 <= 1
 0 <= Z8 <= 1
 0 <= Z9 <= 1
 0 <= Z10 <= 1
 0 <= Z11 <= 1
 0 <= Z12 <= 1
 0 <= Z13 <= 1
 0 <= Z14 <= 1
 0 <= Z15 <= 1
 0 <= Z16 <= 1
 0 <= Z17 <= 1
 0 <= Z18 <= 1
 0 <= Z19 <= 1
 0 <= Z20 <= 1
 0 <= Z21 <= 1
 0 <= Z22 <= 1
 0 <= Z23 <= 1
 0 <= Z24 <= 1
 0 <= Z25 <= 1
 0 <= Z26 <= 1
 0 <= Z27 <= 1
 0 <= Z28 <= 1
 0 <= Z29 <= 1
 0 <= Z30 <= 1
 0 <= Z31 <= 1
 0 <= Z32 <= 1
 0 <= Z33 <= 1
 0 <= Z34 <= 1
 0 <= Z35 <= 1
 0 <= Z36 <= 1
 0 <= Z37 <= 1
 0 <= Z38 <= 1
 0 <= Z39 <= 1
 0 <= Z40 <= 1
Binaries
 Z2 Z3 Z4 Z5 Z6 Z7 Z8 Z9 Z10 Z11 Z12 Z13 Z14 Z15 Z16 Z17 Z18 Z19 Z20 Z21 Z22 Z23 Z24 Z25 Z26 Z27 Z28 Z29
 Z30 Z31 Z32 Z33 Z34 Z35 Z36 Z37 Z38 Z39 Z40
Generals
 x1_2 x1_3 x1_4 x1_5 x1_6 x1_7 x1_8 x1_9 x1_10 x1_11 x1_12 x1_13 x1_14 x1_15 x1_16 x1_17 x1_18 x1_19 x1_20
 x1_21 x1_22 x1_23 x1_24 x1_25 x1_26 x1_27 x1_28 x1_29 x1_30 x1_31 x1_32 x1_33 x1_34 x1_35 x1_36 x1_37
 x1_38 x1_39 x1_40 x2_2 x2_3 x2_4 x2_5 x2_6 x2_7 x2_8 x2_9 x2_10 x2_11 x2_12 x2_13 x2_14 x2_15 x2_16 x2_17
 x2_18 x2_19 x2_20 x2_21 x2_22 x2_23 x2_24 x2_25 x2_26 x2_27 x2_28 x2_29 x2_30 x2_31 x2_32 x2_33 x2_34
 x2_35 x2_36 x2_37 x2_38 x2_39 x2_40 x0_2 x0_3 x0_4 x0_5 x0_6 x0_7 x0_8 x0_9 x0_10 x0_11 x0_12 x0_13 x0_14
 x0_15 x0_16 x0_17 x0_18 x0_19 x0_20 x0_21 x0_22 x0_23 x0_24 x0_25 x0_26 x0_27 x0_28 x0_29 x0_30 x0_31
 x0_32 x0_33 x0_34 x0_35 x0_36 x0_37 x0_38 x0_39 x0_40
End
