original.sol
solution status: optimal solution found
objective value:                     7.19423137915633
Z15                                                 1 	(obj:0)
Z17                                                 1 	(obj:0)
Z18                                                 1 	(obj:0)
Z20                                                 1 	(obj:0)
Z32                                                 1 	(obj:0)
Z33                                                 1 	(obj:0)
Z34                                                 1 	(obj:0)
Z35                                                 1 	(obj:0)
Z36                                                 1 	(obj:0)
Z37                                                 1 	(obj:0)
Z38                                                 1 	(obj:0)
Z39                                                 1 	(obj:0)
Z40                                                 1 	(obj:0)
y0                                                  1 	(obj:0)
x0_2                                                2 	(obj:0.0497870683678639)
x0_3                                                2 	(obj:0.149361205103592)
x0_4                                                2 	(obj:0.224041807655388)
x0_5                                                2 	(obj:0.0497870683678639)
x0_6                                                2 	(obj:0.149361205103592)
x0_7                                                2 	(obj:0.224041807655388)
x0_8                                                2 	(obj:0.0497870683678639)
x0_9                                                2 	(obj:0.149361205103592)
x0_10                                               2 	(obj:0.224041807655388)
x0_11                                               2 	(obj:0.0497870683678639)
x0_12                                               2 	(obj:0.149361205103592)
x0_13                                               2 	(obj:0.224041807655388)
x0_14                                               1 	(obj:0.0497870683678639)
x0_15                                               1 	(obj:0.149361205103592)
x0_16                                               1 	(obj:0.224041807655388)
x0_17                                               1 	(obj:0.0497870683678639)
x0_18                                               1 	(obj:0.149361205103592)
x0_19                                               1 	(obj:0.224041807655388)
x0_20                                               1 	(obj:0.0497870683678639)
x0_21                                               1 	(obj:0.149361205103592)
x0_22                                               1 	(obj:0.224041807655388)
x0_23                                               1 	(obj:0.0497870683678639)
x0_24                                               1 	(obj:0.149361205103592)
x0_25                                               1 	(obj:0.224041807655388)
x0_26                                               1 	(obj:0.0497870683678639)
x0_27                                               1 	(obj:0.149361205103592)
x0_28                                               1 	(obj:0.224041807655388)
x0_29                                               1 	(obj:0.0497870683678639)
x0_30                                               1 	(obj:0.149361205103592)
x0_31                                               1 	(obj:0.224041807655388)
x0_32                                               1 	(obj:0.0497870683678639)
x0_33                                               1 	(obj:0.149361205103592)
x0_34                                               1 	(obj:0.224041807655388)
x0_35                                               1 	(obj:0.0497870683678639)
x0_36                                               1 	(obj:0.149361205103592)
x0_37                                               1 	(obj:0.224041807655388)
x0_38                                               1 	(obj:0.0497870683678639)
x0_39                                               1 	(obj:0.149361205103592)
x0_40                                               1 	(obj:0.224041807655388)
